NAME : instances/clustered-mixed-tsp/instance-84.tsp
COMMENT : No Comment
TYPE : TSP
DIMENSION: 53
EDGE_WEIGHT_TYPE : EUC_2D
NODE_COORD_SECTION
1 895 422 
2 879 450 
3 927 434 
4 891 504 
5 831 548 
6 991 430 
7 697 613 
8 907 540 
9 871 580 
10 847 584 
11 702 944 
12 814 78 
13 907 536 
14 799 544 
15 245 621 
16 265 589 
17 979 338 
18 706 1008 
19 707 98 
20 273 585 
21 850 98 
22 253 585 
23 971 354 
24 855 616 
25 325 557 
26 967 414 
27 827 580 
28 329 593 
29 911 442 
30 337 529 
31 317 549 
32 867 600 
33 785 517 
34 735 134 
35 257 505 
36 935 346 
37 971 386 
38 802 30 
39 204 466 
40 317 577 
41 971 346 
42 847 520 
43 241 505 
44 891 520 
45 795 552 
46 803 580 
47 277 537 
48 879 532 
49 674 916 
50 245 521 
51 859 548 
52 947 342 
53 999 386 
EOF
